
Gurobi 10.0.2 (win64) logging started Fri Jun 21 03:40:28 2024

Set parameter LogFile to value "log/log_difficulty1_MNL_DESKTOP-S7OVCUR_9_15.txt"
Gurobi Optimizer version 10.0.2 build v10.0.2rc0 (win64)

CPU model: Intel(R) Core(TM) i7-10510U CPU @ 1.80GHz, instruction set [SSE2|AVX|AVX2]
Thread count: 4 physical cores, 8 logical processors, using up to 8 threads

Optimize a model with 2020 rows, 676 columns and 4612 nonzeros
Model fingerprint: 0x9d58f8e6
Variable types: 364 continuous, 312 integer (312 binary)
Coefficient statistics:
  Matrix range     [2e-03, 4e+02]
  Objective range  [1e+02, 6e+02]
  Bounds range     [1e+00, 1e+00]
  RHS range        [1e+00, 1e+00]
Found heuristic solution: objective -0.0000000
Presolve removed 224 rows and 104 columns
Presolve time: 0.03s
Presolved: 1796 rows, 572 columns, 4262 nonzeros
Found heuristic solution: objective 1998.2160024
Variable types: 308 continuous, 264 integer (264 binary)

Root relaxation: objective 1.514928e+04, 410 iterations, 0.00 seconds (0.00 work units)

    Nodes    |    Current Node    |     Objective Bounds      |     Work
 Expl Unexpl |  Obj  Depth IntInf | Incumbent    BestBd   Gap | It/Node Time

     0     0 15149.2837    0  156 1998.21600 15149.2837   658%     -    0s
H    0     0                    7439.9883609 15149.2837   104%     -    0s
H    0     0                    8461.4367321 15149.2837  79.0%     -    0s
H    0     0                    12522.640682 14493.5162  15.7%     -    0s
     0     0 14493.5162    0  182 12522.6407 14493.5162  15.7%     -    0s
     0     0 14481.6101    0  187 12522.6407 14481.6101  15.6%     -    0s
     0     0 14481.6101    0  188 12522.6407 14481.6101  15.6%     -    0s
     0     0 14092.6391    0  196 12522.6407 14092.6391  12.5%     -    0s
H    0     0                    12558.421282 14053.6573  11.9%     -    0s
     0     0 14053.6573    0  199 12558.4213 14053.6573  11.9%     -    0s
H    0     0                    13781.179971 14049.4523  1.95%     -    0s
     0     0 14049.4523    0  199 13781.1800 14049.4523  1.95%     -    0s
     0     0 14049.2018    0  195 13781.1800 14049.2018  1.94%     -    0s
H    0     0                    13798.881781 14049.2018  1.81%     -    0s
     0     0 13932.1954    0  178 13798.8818 13932.1954  0.97%     -    0s
     0     0 13912.9245    0  171 13798.8818 13912.9245  0.83%     -    0s
     0     0 13901.9847    0  175 13798.8818 13901.9847  0.75%     -    0s
     0     0 13901.5072    0  177 13798.8818 13901.5072  0.74%     -    0s
     0     0 13868.0837    0  182 13798.8818 13868.0837  0.50%     -    0s
     0     0 13866.5086    0  183 13798.8818 13866.5086  0.49%     -    0s
     0     0 13865.6956    0  184 13798.8818 13865.6956  0.48%     -    0s
     0     0 13865.6316    0  183 13798.8818 13865.6316  0.48%     -    0s
     0     0 13823.2235    0  189 13798.8818 13823.2235  0.18%     -    0s
     0     0 13823.0698    0  185 13798.8818 13823.0698  0.18%     -    0s
     0     0 13818.0685    0  169 13798.8818 13818.0685  0.14%     -    0s
     0     0 13817.2380    0  171 13798.8818 13817.2380  0.13%     -    0s
     0     0 13817.1615    0  172 13798.8818 13817.1615  0.13%     -    0s
     0     0 13807.9896    0  183 13798.8818 13807.9896  0.07%     -    0s
     0     0 13807.9895    0  181 13798.8818 13807.9895  0.07%     -    0s
     0     0 13807.2953    0  181 13798.8818 13807.2953  0.06%     -    0s
     0     0 13806.7434    0  181 13798.8818 13806.7434  0.06%     -    0s
     0     0 13803.7326    0  190 13798.8818 13803.7326  0.04%     -    0s
     0     0 13803.6294    0  171 13798.8818 13803.6294  0.03%     -    0s
     0     0 13803.1174    0  171 13798.8818 13803.1174  0.03%     -    0s
     0     0 13802.6688    0  158 13798.8818 13802.6688  0.03%     -    0s
     0     0 13802.5808    0  158 13798.8818 13802.5808  0.03%     -    0s
     0     0 13800.5250    0  159 13798.8818 13800.5250  0.01%     -    0s
     0     0 13800.5250    0   66 13798.8818 13800.5250  0.01%     -    0s
     0     0 13798.8818    0   47 13798.8818 13798.8818  0.00%     -    0s

Cutting planes:
  Gomory: 15
  Cover: 10
  Implied bound: 55
  Clique: 7
  MIR: 42
  Flow cover: 63
  RLT: 20
  Relax-and-lift: 17
  BQP: 17

Explored 1 nodes (3328 simplex iterations) in 0.98 seconds (0.35 work units)
Thread count was 8 (of 8 available processors)

Solution count 8: 13798.9 13781.2 12558.4 ... -0

Optimal solution found (tolerance 1.00e-04)
Best objective 1.379888178092e+04, best bound 1.379888178092e+04, gap 0.0000%
